
 102   30
  10   10   10   10   10   10   10   10   10   10   10   10   10   10   10   10   10   10   10   10   10   10   10   10   10   10   10   10   10   10

   0   0   0   0   0   0   0   0   0   0   0   0   0   0   0   0   0   0   0   0   0   0   0   0   0   0   0   0   0   0   0  25 2 3 4 5 6 7 8 9 10 11 12 13 14 15 16 17 20 21 23 24 25 26 28 29 53 
   8   0   0   0   0   0   0   0   0   0   0   0   0   0   2   0   0   3   0   0   0   1   0   0   0   0   0   0   0   0   0  14 62 60 54 51 48 47 46 45 42 38 35 33 30 22 
  10   0   0   0   0   2   0   0   0   0   0   0   0   3   0   0   0   0   0   0   0   6   1   1   0   0   0   3   0   0   0  12 75 60 48 46 43 42 36 34 33 32 22 19 
   2   3   0   0   0   0   0   0   0   0   0   0   0   0   0   0   3   0   0   3   0   0   0   0   0   0   0   0   0   0   0  14 101 98 72 65 60 54 44 43 39 38 36 31 30 22 
   3  10   0   0   0   6   0   0   0   0   0   0   0   0   0   0   0   0   0   0   0   0   0   0   0   0   0   0   0   0   0  13 73 60 54 51 47 45 43 42 38 37 34 32 22 
   3   0   1   1   0   0   0   0   0   4   0   0   0   0   0   0   0   0   0   0   0   0   0   0   0   0   0   0   0   0   0  10 101 97 74 73 60 52 42 34 22 18 
   8   0   0   0   0   0   0   0   1   0   0   0   0   0   0   0   0   0   0   0   0   2   0   0   0   0   0   0   0   0   0  14 101 74 72 63 62 60 58 49 44 40 38 36 34 22 
   3   0   0   0   0   0   0   0   0   4   0   1   0  10   0   0   0   0   0   0   0   0   0   6   1   0   0   0   1   0   1  17 101 100 99 98 71 65 64 61 60 59 56 50 46 42 41 39 38 
   6   2   0   0   1   0   2   0   0   0   0   8   0   6   0   0   0   0   0   0   0   0   0   0   0   0   0   4   6   0   0  12 99 74 60 59 57 56 47 46 43 34 30 27 
   8   0   0   0   0   0   0   0   0   3   0   0   0   4   0   0   4   0   0   0   1   0   0   0   0   0   0   0   0   0   0  11 100 99 73 71 65 61 60 57 47 34 19 
   6   0   0   0   0   0   0   0   0   0   0   0   0   0   0   0   6   0   0   0   0   0   0   0   0   0   0   0   0   0   0  17 100 75 72 71 70 65 64 61 60 59 56 55 54 50 39 38 34 
   3   0   0   0   0   0   0   0   0   0   0   0   0   0   0   0   0   0   0   0   7   0   0   0   0   0   1   0   9   0   0  19 100 99 98 97 96 74 73 72 71 70 69 63 61 60 59 57 56 54 34 
   2   0   0   0   0   0   0   0   0   0   0   0   0   0   0   0   0   0   0   0   0   0   0   0   0   1   0   0   0   0   0  16 99 98 97 96 93 75 71 65 64 61 60 57 56 43 34 32 
   5   5   7   0   0   0   0   1   8   0   0   0   0   0   0   0   0   0   1   0   0   0   9   0   0   0   0   2   0   0   0  14 101 98 96 93 74 73 70 61 60 56 44 39 34 32 
   1   0   0   0   0   8   0   0   0   0   0   0   0   0   0   0   0   5   0   0   0   6   0   7   0   0   0   0   8   0   0  18 101 100 99 96 93 73 72 71 65 63 61 60 59 57 50 49 44 34 
   8   4   0   0   0   0   0   0   0   0   0   0   0   0   0   1   0   0   0   9   8   0   0   0   0   0   0   0   0   0   0  16 99 96 95 92 90 86 72 71 70 65 64 63 61 58 40 38 
   3   0   0   0   0   0   0   0   5   0   0   0   0   5   0   9   0   0   0   0   0   0   0   0   0   0   0  10   8   0   0  16 101 98 97 96 95 92 88 73 71 60 56 55 54 50 43 38 
   4   0   0   0   0   0   0   0   0   0   0   6   0   0   0   0   0   0   0   0   0   0   0   0   0   0   0   0   0   0   0  15 98 96 95 88 71 70 67 63 58 56 54 50 45 43 38 
   2   0   0   0   0   4   4   0   0   0   1   0   0   0   4   0   0   0   0   0   0   0   0   0   0   0   0   0   0   0   6  16 98 96 93 85 82 70 69 66 64 63 59 58 52 50 49 41 
   6   5   0   0   0   0   0   0   0   0   0   0   0   0   0   0   0   0   0   0   0   0   0   0   0   0   0   8   5   0   0  18 100 95 94 91 90 89 88 86 72 70 69 63 61 60 59 58 55 54 
   7   0   0   0   0   0   6   0   0   0   7   0   0   5   0   0   0   0   0   0   0   0   0   8   0   0   0   0   0   0   0  14 88 74 72 71 70 67 63 61 59 57 56 54 50 45 
   1   0   0   0   6  10   0   0   0   0   0   0   0   0  10   0   0   0   0   0   0   8   0   0   0   0   0   0   0   0   0  15 100 99 95 93 88 82 71 69 66 64 61 59 56 55 50 
   4   0   4   0   0   0   0   0   4   0   0   7   0   0   0   0   0   0   0   0   0   0   0   0   0   0   0   3   5   0   0  20 99 97 96 95 94 93 91 90 89 88 85 83 74 70 69 67 63 62 59 57 
   8   0   0   0   0   0   0   0   0   0   0   0   0   0   0   0   0   3   0   0   0   0   0   0   0   0   0   0   0   0   0  11 98 96 93 90 70 63 61 60 59 57 34 
   2   0   0   0   0   0   0   0   0   0   0   0   0   7   0   0   0   0   0   0   0   0   0   0   0   0   0   0   7   0  10  15 89 87 86 73 71 70 69 67 64 63 61 60 58 57 49 
   6   0   0   0   0   0   0   0   0   0   0   0   0   0   0   0   5   0   0   6   0   0   0   0   0   0   0   0   0   1   0  17 98 97 94 92 90 89 88 87 85 82 78 70 63 62 61 58 49 
   4   0   0   6   0   0   0   0   0   0   0   0   0   4   0   0   0   0   0   0   0   0   0   0   0   0   0   0   0   0   0  16 98 94 93 89 87 82 80 72 71 70 67 66 63 61 58 51 
   2   0   0   0   0   0   0   0   0   0   0   0   0   0   0   0   0   0   0   0   0   8   0   0   0   0   5   0   0   0   0  17 99 97 94 93 89 88 85 83 82 81 79 78 74 70 69 68 59 
   1   0   0   0   0   0   0   0   9   0   5   0   0   0   0   0   0   0   0   0   0   7   0   0   0   0   0   0   0   7   0  16 98 95 93 92 89 88 87 83 81 80 77 76 74 72 67 60 
   6   0   0   0   0   0   0   0   0   0   0   0   0   0   0   0   0   0   0   0   0   0   0   0   0   0   0   0   0   0   6  15 100 97 96 93 91 86 82 80 78 73 69 66 63 61 58 
   5   0   0   0   0   7   0   0   0   0   0   6   0   0   0   0   0   0   0   0   0   0   0   0   0   0   0   0   0   0   0  15 97 93 91 89 88 85 83 82 81 79 77 70 69 67 59 
   6  10   0   0   0   0   0   0   0  10   0   0   0   0   0   0   0  10   0   0   8   0   0   6   0   0   0   0   0   0   0  12 89 88 87 85 83 82 80 78 72 63 58 50 
   6   0   0   0   0   0   0   0   0   0   0   0   0   0   0   4   0   5   0   6   0   0   0   0   0   0   0   0   0   0   0  16 95 93 92 90 88 87 86 85 82 81 78 77 71 69 66 64 
   9   0   0   0   0   0   0   0   0   0   0   0   0   0   4   6   0   0   0   0   9   0   0   0   0   0   0   0   0   0   0  17 95 94 92 91 89 88 87 86 85 84 83 82 80 77 76 67 66 
   6   0   0   0  10   0   0   0   0   0   0   0   1   6   0   0   0   0   0   0   0   0   0   0   0   0   0   0   0   0   0  12 96 95 91 88 87 82 79 77 76 70 65 56 
   9   0   0   0   5   0   0  10   0   0   0   0   0   0   0   0   0   0   0   0   4   2   0   0   0   0   4   0   0   0   0  14 97 96 95 93 92 90 88 86 85 82 81 80 78 69 
   6   0   0   0   4   0   0   0   0   0   0   0   0   0   0   0   0   0   0   0   6   8   7   0   0   0   0   0   0   0   4  12 101 98 97 96 95 90 88 84 82 79 67 63 
   7   0   0   9   0   2   0   0   0   0   0   0   0   0   0   0   0   0   0   6   0   0   0  10   0   0   0   0   0   0   0  11 94 93 89 87 85 84 83 80 69 68 57 
   8   0   0   0   9   5   4   0   0   0   0   5   8   0   0   0   0   0   0   0   0   0   7   0   0   0   7   0   0   0   0  11 97 94 92 90 88 82 80 79 68 67 63 
  10   0   0   0   0   0   0   0   6   4   0   0   0   0   8   0   0   0   0   0   0   0   0   0   0   0   0   0   8   0   0   9 97 89 88 85 84 83 80 67 54 
   7   8   0   0   0   0   0   0   0   0   0   0   0   0   0   0   0   0   0   0   0   0   0   9   8   0   0   0   0   7   0  12 97 95 90 89 88 87 86 84 83 80 76 67 
   6   0   0   0   0   0   0   0   0   0   0   0   0   0   0   0   0   0   0   0   0   0   0   0   0   0   7   0   0   0   0   9 96 87 85 81 80 77 72 66 57 
   3   5   0   0   0  10   0   0   7   6   0   0   0   0   0   0   0   0   0   4   3   0   0   0   0   0   4   0   0   0   0  11 91 89 86 84 83 82 81 80 78 77 66 
   6   0   5   3   0   0   0   5   8   7   0   0   0   5   0   0   0   0   7   0   0   0   7   0   0   0  10   0   2   0   0   9 92 90 87 83 82 81 78 69 68 
   7   0   6   0   0   0   0   7   4   0   0   0   0   6   0   0   5   0   0   0   0   0   0   0   6   0   0   0   0   6   0   9 94 93 92 87 82 81 77 76 66 
   1   0   0   3   0   0   0   0   0   0   0   0   0   0   0   0   0   7   9   0   0   5   0   0   0   0   0   8   0   0   0   6 89 82 80 70 63 58 
   9   0   0   0   0   0   0   5   0   0   0   0   0   0   0   0   0   0   0   0   0   0   0   0   0   0   0   0   0   0   0   8 92 86 85 84 83 81 76 72 
   9   0   0   0   0   0   0   0   0   0   0   0   0   0   0   0   0   0   5   0   0   0   0   0   0   0   0   0   0   0   0   8 93 90 85 79 78 77 76 71 
  10   0   6   0   0   0   0   0   0   9   0   0   6   0   0   0   0   4   0   0   0   0   0   0   0   0   0   0   0   0   0   6 95 91 83 80 77 76 
   1   0   0   0   0   0   0   0   0   0   0   0   6   0   0   0   0   0   5   5   0   0   7   4   0   0   0   0   0   0   0   5 94 90 86 84 68 
   4   0   0   0   7   0   0   0   0   0   0   0   9   0   0   0   0   0   0   0   0   0   0   0   0   0   0   0   0   0   0   5 96 88 86 78 76 
   4   0   0   0   6   0   0   0   0   0   0   0   0   0   0   0   0   0   7   0   0   0   0   0   4   0   7   0   0   0   4   5 92 91 90 78 77 
   4   0   0   0   0   0   0   0   0   0   6   0   0   0   0   0   6   0   8   0   0   0   9   0   0   0   8   0   0   0   0   5 91 86 83 80 76 
   5   0   0   0   0  10   0   0   0   0   0   7   0   0   0   0   0   0   0   0   0   0   0   0   0   0  10   0   0   0   0   4 93 77 76 66 
   8   0   7   0   0   0   6   0   0   0   0   0   0   2   0   0   0   0   6   4   0   9   0   0   0   0   0   0   0   0   0   4 84 81 76 67 
   7   0   0   0   0   0   0   0   0   0   0   0   0   0   0   0   0   0   0   3   0   0   0   0   0   0   0   0   0   0   0   4 89 85 81 80 
   5   0   6   0   0   0   0   0   3   0   9   0   0   0   0   0   0   0   0  10   0   6   0   0   0   0   0   0   0   0   0   3 82 78 76 
   5   0   0   0   0   3   0   0   0   0   0   0   3   0   0   0   0   0   0   0   0   0   0   0   0   5   0   0   0   0   0   3 81 79 76 
  10   0   0   0   0   0   8   0   0   0   0   0   0   0   0   9   0   0   0   6   0   0   0   0   0   9   4   0   0   0   0   3 92 87 80 
   4   0   0   0   0   0   0   6   0   6   0   0   0   7   0   4   5   0   0   0   0   0   0   0   7   0   0   0   0   0   0   3 85 84 82 
   7   0   0   0   0   3   8   0   0   0   0   0   0   0   0   9   0   0   0   0   0   0   0   0   0   0   5   0   0   0   0   2 83 68 
   5   0   0   0   3   0   0   0   0   0   0   0   0   9   0   0   0   0   0   0   0   0   0   0   0   0   0   0   8   0   0   2 77 66 
   9   0   0   0   0   0   0   8   0   0   0   8   0  10   0   0   0   8   0   0   0   8   0   0   0   0   0   0   0   0   0   2 81 76 
   6   0   0   0   0   0   0   0   0   0   0   0   0   0   0   0   0   0   0   0   0   0   0   0   0   0   6   0   0   7   0   2 94 79 
   8   0   0   0   0   0   0   0   0   0   0   0   4   0   0   0   0   0   0   7   0   0   0   0   0   0   0   0   0   0   0   2 83 80 
   3   0   0   7   0   0   0   0   0   0   0   0   0   0   0   0   0   0   0   0   0   0   0   0   0   0   5   0   0   0   0   1 79 
   3   0   0   0   0   0   0   0   0   0   0   0   0   6   0   0   0   0   0  10   0   5   0   0   5   8   0   0   0   0   0   1 78 
   4   0   0   0   0   0   0   0   0   0   6   0   0   0   0   0   0   0   0   0   8   0   0   0   4   0   0   0   9   0   0   1 77 
   2  10   0   0   0   0   0   0   0   0   6   0   0   0   0   0   0   0   0   0   0   0   0   0   0   0   0   0   0   0   0   1 76 
   9   0   0   0   0   0   0   0   0  10   0   0   0   0   0   0   6   0   0   6   0   0   0   6   0   0   7   0   0   0   0   1 84 
   5   6   0   0   9   0  10   0   0   0   6   0   0   0   0   0   0   0   0   0   0   0   0   0   0   0   0   6   0   0   4   1 91 
   6   0   0   0   9   0   0   0   0   0   0   0   0   0   0   0   0   0   0   5   0   7   0   0   0   0   0   0   0   7   0   1 79 
   9   0   0  10   7   0   0   0   0   0   0   0   0   0   0   0   0  10   0   0   0   0   0   0   0   0   0   0   0   0   0   1 90 
   1   0   0   0   2   0   0   0   0   0   0   0   0   0   4   6   0   0   0   0   0   8   0   8   0   0   0   0   0   0   0   1 86 
   3   0   8   0   0   7   0   5   0   2   0   0   0   0   0   0   0   0   0   0   0   0   0   2   0   0   6   0   0   0   0   1 78 
   6   0   0   0   0   0   0   6   6   0   0   0   0   0   0   0   7   0   0   0   0   0   0   0   0   0   0   8   0   0   0   1 102
  10   0   0   0   0   0   0   0   0   0   0   0   0   0   0   0   0   0   0   0   0   0   0   0   0   0   0   0   0   9   0   1 102
   8   0   0   0   7   0   0   0   0   0   0   0   8   0   7   0   0   5   0   0   0   0   0   0   0   0   6   0   0   0   0   1 102
   8   0   0   8   4   0   0   0   0   0   0   0   0   0   0   0   0   7   0   0   0   0   0   0   7   0   0   0   0   0   0   1 102
   7   0   7   0   0   0   0   6   6   0   0   0   0   0   0   6   0   0   0   0   0   0   0   0   0   0   4   0   6   0   0   1 102
   2   7   0   0   0   0   0   0   0   0   0   3   0   0   0   0   0   0   0   0   0   0   0   0   0   0   5   0   0   0   0   1 102
  10   4   0   0   0   6   0   0   0   0   0   0   0   0   0   8   0   4   5   0   0   0   0   0   9   6   0   5   0   0   0   1 102
   1   0   0   8   0   0   0   0   6   0   0   0   0   0   0   0   0   0   0   0   0   0   0   0   0   0   6   0   0   0   0   1 102
  10   0   0   0   0   7   0   0   0   0   4   0   0   0   0   0   0   0   7   0   4   0   0   0   0   0   0   0   0   0   0   1 102
   2   5   0   0   0   0   0   6   0   0   5   6   0   0   0   0   0   0   0   0   6   6   0   0   0   0   0   5   0   0   0   1 102
   9   0   0   6   0   0   0   0   0   6   0   0   0   7   0   0   0   0   0   0   0   0   7   0   0   4   0   0   0   6   0   1 102
   4   0   0   0   0   0   0   0   8   0   6   0   9   0   0   0   9   0   0   0   0   0   0   6   0   0   0   0   0   5   8   1 102
   2   0   0   0   0   0   0   0   0   0   0   0   0   0   0   0   0   0   0   0   0   0   0   0   0   9   0   0   0   0   0   1 102
   4   0   0   0   0   0   0   0   0   0   9   0   0   0   0   0   0   0   0   0   0   0   2   0   0   0   0   0   0   0   0   1 102
   6   0   0   0   0   0   0   0   0   0   9   0   0   0   0   0   0   0   0   0   0   0   0   5   0   0   0   0   0   0   0   1 102
   1   0   5   0   0   5   0   0   8   0   0   0   0   0   0   0   0   7   0   0   0   6   0   0   0   0   0   0   0   0   5   1 102
   7   0  10   0   0   7   0   0   0   0   0   9   0   0   0   0   0   0   0   0   8   0   0   0   0   0   0   0   0   0   0   1 102
   1   0   0   0   7   0   0   4   6   0   0   0   0   0   0   0   0   0   0   0   0   0   0   0   0   0   0   0   4   0  10   1 102
   8   0   0   0   0   0   0   0   0   0   0   0   0   6   0   0   0   0   0   0   4   0   4   0   0   0   9   0   0   0   0   1 102
   8   0   0   0   0   0   0   9   0   0   0   0   0   0   0   4   0   6   0   0   0   0   0   0   0   0   0   0   0   0   0   1 102
  10   0   0   0   6   0   0   6   7   0   0   0   0   0   0   0   0   0   0   0   0   0   0   0   0   0   0  10   0   0   5   1 102
  10   0   0   0   0   0   0   0   0   0   6   0   0   0   9   0   0   0   0   0   0   0   0   0   0   0   0   0   0   6   0   1 102
   6   0   0   5   0   0   0   0   0   0   5   0   0   0   0   0   0   0   0   0   0   0   0   0   9   0   0   0   0   0   0   1 102
  10   0   0   0   0   0   0   0   6   0   0   0   0   0   0   0  10   0   0   0   0   0   0   0   0   0   0   0   0   0   7   1 102
  10   0   0   0   0   0   0   0   0   7   0   0   0   0   0   0   0   0   0   0   8   0   0   0   0   0   0   0   0   0   8   1 102
   4   0   0   0   0   0   0   0   0   0   0   0   0   0   0   0   0   0   0   0   0   0   0   0   0   0   0   0   4   5   0   1 102
   0   0   0   0   0   0   0   0   0   0   0   0   0   0   0   0   0   0   0   0   0   0   0   0   0   0   0   0   0   0   0   0 
